(set-info :smt-lib-version 2.6)
(set-logic QF_NRA)
(set-info :source |
Generated by: Ali K. Uncu, Matthew England, and James H. Davenport
Generated on: 2022-01-06

Generator: SUMCracker-ProveInequality function by Manuel Kauers ("https://www3.risc.jku.at/research/combinat/software/ergosum/RISC/SumCracker.html")
Translated to SMT-Lib by Maple SMTLIB package.

Application: CAD calls of SUMCracker-ProveInequality to prove Example 4 in
M. Kauers and V. Pillwein, When can we detect that a P-finite sequence is positive?
ISSAC '10: Proceedings of the 2010 International Symposium on Symbolic and Algebraic ComputationJuly 2010 Pages 195–201
(https://doi.org/10.1145/1837934.1837974)
|)
(set-info :license "https://creativecommons.org/licenses/by/4.0/")
(set-info :status sat)
(set-info :category "industrial")

(declare-fun V1 () Real)
(declare-fun V2 () Real)
(declare-fun V3 () Real)
(assert (and (<= 0 V1) (<= 1 V3) (<= 0 V3) (< V2 0)))
(check-sat)
(exit)


























